<?xml version = "1.0" encoding="UTF-8" standalone="yes"?>
<CPLEXSolution version="1.2">
 <header
   problemName="mknap7"
   objectiveValue="6.487179487179489"
   solutionTypeValue="1"
   solutionTypeString="basic"
   solutionStatusValue="1"
   solutionStatusString="optimal"
   solutionMethodString="dual"
   primalFeasible="1"
   dualFeasible="1"
   simplexIterations="2"
   writeLevel="1"/>
 <quality
   epRHS="9.9999999999999995e-07"
   epOpt="9.9999999999999995e-07"
   maxPrimalInfeas="0"
   maxDualInfeas="0"
   maxPrimalResidual="2.6645352591003757e-15"
   maxDualResidual="1.7763568394002505e-15"
   maxX="0.60897435897435903"
   maxPi="0.58974358974358987"
   maxSlack="29.660256410256409"
   maxRedCost="1.0512820512820547"
   kappa="6.937402094154506"/>
 <linearConstraints>
  <constraint name="c0" index="0" status="BS" slack="6.9391025641025639" dual="-0"/>
  <constraint name="c1" index="1" status="LL" slack="0" dual="0.58974358974358987"/>
  <constraint name="c2" index="2" status="LL" slack="0" dual="0.025641025641025668"/>
  <constraint name="c3" index="3" status="BS" slack="29.660256410256409" dual="-0"/>
 </linearConstraints>
 <variables>
  <variable name="x0" index="0" status="BS" value="0.60897435897435903" reducedCost="0"/>
  <variable name="x1" index="1" status="LL" value="0" reducedCost="-0.74358974358974461"/>
  <variable name="x2" index="2" status="BS" value="0.57371794871794868" reducedCost="0"/>
  <variable name="x3" index="3" status="LL" value="0" reducedCost="-1.0512820512820547"/>
  <variable name="s0" index="4" status="LL" value="0" reducedCost="0"/>
  <variable name="s1" index="5" status="LL" value="0" reducedCost="-0.58974358974358987"/>
  <variable name="s2" index="6" status="LL" value="0" reducedCost="-0.025641025641025668"/>
  <variable name="s3" index="7" status="LL" value="0" reducedCost="0"/>
 </variables>
 <objectiveValues>
  <objective index="0" name="" value="6.4871794871794872"/>
 </objectiveValues>
</CPLEXSolution>
